c 1,2,3,4,5,6
c generated by 3SATGen (Martina for LNdW 2018)
c model [~x5,x7,x3,x1,x2,~x9,~x8,x10,x6,x4]
p cnf 10 40
3 5 -8 0
1 -2 -4 0
3 -4 7 0
-4 8 -9 0
-3 -5 -10 0
-3 -4 7 0
1 -8 10 0
6 8 10 0
-1 4 6 0
1 7 -8 0
-2 4 9 0
3 -5 10 0
-3 -4 -8 0
-2 5 -9 0
2 3 -7 0
-2 -4 7 0
1 4 5 0
-3 6 -10 0
4 5 10 0
5 9 10 0
-1 -3 10 0
4 8 -9 0
-1 -3 6 0
2 5 -10 0
2 -5 8 0
-3 4 7 0
-4 -5 -8 0
-2 -4 6 0
-2 3 10 0
-1 -8 -9 0
-3 -8 10 0
6 -7 9 0
3 -7 -9 0
5 6 10 0
4 -7 8 0
-6 -8 -10 0
2 -3 4 0
1 -5 -8 0
-1 3 8 0
6 8 9 0
